INPUT_PARAMETERS
# Created by Atomic Simulation Enviroment
ntype               1
calculation         scf
ecutwfc             20
basis_type          lcao
ks_solver           genelpa
smearing_method     gaussian
smearing_sigma      0.01
mixing_type         pulay
mixing_beta         0.7
scf_nmax            50
scf_thr             1e-08
cal_force           1
force_thr           0.001
cal_stress          1
stress_thr          5
out_chg             1
out_stru            1
