Cesium lead tribromide
1.0
        5.8733000755         0.0000000000         0.0000000000
        0.0000000000         5.8733000755         0.0000000000
        0.0000000000         0.0000000000         5.8733000755
   Cs   Pb   Br
    1    1    3
Direct
     0.500000000         0.500000000         0.500000000
     0.000000000         0.000000000         0.000000000
     0.500000000         0.000000000         0.000000000
     0.000000000         0.500000000         0.000000000
     0.000000000         0.000000000         0.500000000
