Al 
 1.0000000000000000
     4.0389299982112243    0.0000000000000000    0.0000000000000000
     0.0000000000000000    4.0389299982112243    0.0000000000000000
     0.0000000000000000    0.0000000000000000    4.0389299982112243
 Al 
   4
Selective dynamics
Cartesian
  0.0000000000000000  0.0000000000000000  0.0000000000000000   T   T   T
  0.0000000000000000  2.0194649991056122  2.0194649991056122   T   T   T
  2.0194649991056122  0.0000000000000000  2.0194649991056122   T   T   T
  2.0194649991056122  2.0194649991056122  0.0000000000000000   T   T   T
